(set-logic ALL)
(set-option :produce-models true)
(declare-sort BoundSet 0)
(declare-sort UnboundSet 0)
(set-option :finite-model-find true)
(declare-fun WearingCoats (BoundSet) Bool)
(declare-fun KissOnSideOfRoad (BoundSet) Bool)
(declare-fun ShowAppreciationFor (BoundSet BoundSet) Bool)
(assert (not (=> (and (exists ((a BoundSet)) (and (WearingCoats a) (KissOnSideOfRoad a))) (forall ((i BoundSet)) (forall ((g BoundSet)) (forall ((h BoundSet)) (=> (KissOnSideOfRoad g) (ShowAppreciationFor h i)))))) (exists ((e BoundSet)) (exists ((f BoundSet)) (ShowAppreciationFor e f))))))
(check-sat)
(get-model)